%%% static parameters %%%
timespan = 1;
Clients_N = [500];
Demand_W = [20];
Lt0 = [4];
Lt1 = [4];
SS_ = [0.85];
DS_D = [6];
K = [200];
MA = [500];
HC = [0.05];
%%% dynamic parameters %%%
lost_ratio_sales_ret_th = 0.00048639359229645364;
lost_ratio_sales_ret_w = 89;
lost_ratio_sales_dis_th = 0.0009610572271604942;
lost_ratio_sales_dis_w = 42;
lost_ratio_sales_fac_th = 0.00042079884433488115;
lost_ratio_sales_fac_w = 99;
stock_customer_MA_mean_relative_th = 0.7161719209807573;
stock_customer_MA_mean_relative_w = 64;
stock_distributor_MA_mean_relative_th = 0.303245783317457;
stock_distributor_MA_mean_relative_w = 65;
stock_retailer_MA_mean_relative_th = 0.2558740167170823;
stock_retailer_MA_mean_relative_w = 85;
stock_factory_MA_mean_relative_th = 0.23955413062619757;
stock_factory_MA_mean_relative_w = 86;
